(set-logic QF_UF)
(declare-sort U 0)
(declare-fun f ( U ) U)
(declare-fun g ( U ) U)
(declare-fun h ( U ) U)
(declare-fun x ( ) U)
(declare-fun y ( ) U)
(declare-fun w ( ) U)
(declare-fun z ( ) U)
(assert (not (= (f (g x)) (f y))))
(assert (= x w))
(assert (= (g x) (h z)))
(assert (= z x))
(assert (= (h w) y))
(check-sat)
(exit)
